SECTION Graph
Nodes 1196
Edges 2084
E 1 2 5
E 2 3 5
E 3 4 5
E 4 5 5
E 5 6 5
E 6 7 5
E 7 8 5
E 8 9 5
E 9 10 5
E 10 11 5
E 11 12 5
E 14 15 5
E 15 16 5
E 16 17 5
E 18 19 5
E 19 20 5
E 21 22 5
E 22 23 5
E 24 25 5
E 25 26 5
E 27 28 5
E 28 29 5
E 29 30 5
E 30 31 5
E 31 32 5
E 32 33 5
E 33 34 5
E 34 35 5
E 35 36 5
E 36 37 5
E 37 38 5
E 38 39 5
E 39 40 5
E 40 41 5
E 41 42 5
E 42 43 5
E 44 45 5
E 45 46 5
E 46 47 5
E 47 48 5
E 48 49 5
E 1 50 13
E 2 51 13
E 3 52 13
E 4 53 13
E 5 54 13
E 6 55 13
E 7 56 13
E 8 57 13
E 9 58 13
E 10 59 13
E 12 60 13
E 13 62 13
E 14 64 13
E 15 65 13
E 16 66 13
E 17 67 13
E 18 69 13
E 19 70 13
E 20 71 13
E 21 73 13
E 23 75 13
E 24 77 13
E 25 78 13
E 26 79 13
E 27 81 13
E 30 84 13
E 31 85 13
E 32 86 13
E 33 87 13
E 34 88 13
E 35 89 13
E 36 90 13
E 37 91 13
E 38 92 13
E 39 93 13
E 40 94 13
E 41 95 13
E 42 96 13
E 43 97 13
E 44 100 13
E 45 101 13
E 46 102 13
E 47 103 13
E 48 104 13
E 49 105 13
E 50 51 5
E 51 52 5
E 52 53 5
E 53 54 5
E 54 55 5
E 55 56 5
E 56 57 5
E 57 58 5
E 58 59 5
E 60 61 5
E 61 62 5
E 62 63 5
E 63 64 5
E 64 65 5
E 65 66 5
E 66 67 5
E 67 68 5
E 68 69 5
E 69 70 5
E 70 71 5
E 71 72 5
E 72 73 5
E 73 74 5
E 74 75 5
E 75 76 5
E 76 77 5
E 77 78 5
E 78 79 5
E 79 80 5
E 80 81 5
E 81 82 5
E 82 83 5
E 83 84 5
E 84 85 5
E 85 86 5
E 86 87 5
E 87 88 5
E 88 89 5
E 89 90 5
E 90 91 5
E 91 92 5
E 92 93 5
E 93 94 5
E 94 95 5
E 95 96 5
E 96 97 5
E 97 98 5
E 98 99 5
E 99 100 5
E 100 101 5
E 101 102 5
E 102 103 5
E 103 104 5
E 104 105 5
E 51 107 13
E 52 108 13
E 54 110 13
E 55 111 13
E 56 112 13
E 57 113 13
E 58 114 13
E 59 115 13
E 60 116 13
E 61 117 13
E 62 118 13
E 63 119 13
E 64 120 13
E 66 122 13
E 67 123 13
E 68 124 13
E 69 125 13
E 71 127 13
E 72 128 13
E 73 129 13
E 74 130 13
E 75 131 13
E 76 132 13
E 77 133 13
E 79 135 13
E 80 136 13
E 81 137 13
E 82 138 13
E 84 140 13
E 85 141 13
E 86 142 13
E 87 143 13
E 88 144 13
E 89 145 13
E 90 146 13
E 91 147 13
E 92 148 13
E 93 149 13
E 94 150 13
E 95 151 13
E 96 152 13
E 97 153 13
E 98 154 13
E 99 155 13
E 100 156 13
E 101 157 13
E 102 158 13
E 103 159 13
E 104 160 13
E 105 161 13
E 106 107 5
E 107 108 5
E 108 109 5
E 109 110 5
E 110 111 5
E 111 112 5
E 112 113 5
E 113 114 5
E 114 115 5
E 116 117 5
E 117 118 5
E 118 119 5
E 119 120 5
E 120 121 5
E 121 122 5
E 122 123 5
E 123 124 5
E 124 125 5
E 125 126 5
E 126 127 5
E 127 128 5
E 128 129 5
E 129 130 5
E 130 131 5
E 131 132 5
E 132 133 5
E 133 134 5
E 134 135 5
E 135 136 5
E 136 137 5
E 137 138 5
E 138 139 5
E 139 140 5
E 140 141 5
E 141 142 5
E 142 143 5
E 143 144 5
E 144 145 5
E 145 146 5
E 146 147 5
E 147 148 5
E 148 149 5
E 149 150 5
E 150 151 5
E 151 152 5
E 152 153 5
E 153 154 5
E 154 155 5
E 155 156 5
E 156 157 5
E 157 158 5
E 158 159 5
E 159 160 5
E 160 161 5
E 106 162 13
E 107 163 13
E 108 164 13
E 109 165 13
E 111 166 13
E 113 168 13
E 114 169 13
E 115 170 13
E 116 172 13
E 117 173 13
E 118 174 13
E 119 175 13
E 121 177 13
E 122 178 13
E 123 179 13
E 125 180 13
E 127 181 13
E 128 182 13
E 129 183 13
E 130 184 13
E 131 185 13
E 132 186 13
E 133 187 13
E 134 188 13
E 135 189 13
E 136 190 13
E 137 191 13
E 138 192 13
E 139 193 13
E 140 194 13
E 141 195 13
E 143 196 13
E 144 197 13
E 146 198 13
E 147 199 13
E 148 200 13
E 149 201 13
E 150 202 13
E 152 203 13
E 153 204 13
E 154 205 13
E 155 206 13
E 156 207 13
E 157 208 13
E 158 209 13
E 160 210 13
E 162 163 5
E 163 164 5
E 164 165 5
E 166 167 5
E 167 168 5
E 168 169 5
E 169 170 5
E 170 171 5
E 171 172 5
E 172 173 5
E 173 174 5
E 174 175 5
E 175 176 5
E 176 177 5
E 177 178 5
E 178 179 5
E 181 182 5
E 182 183 5
E 183 184 5
E 184 185 5
E 185 186 5
E 186 187 5
E 187 188 5
E 188 189 5
E 189 190 5
E 190 191 5
E 191 192 5
E 192 193 5
E 193 194 5
E 194 195 5
E 196 197 5
E 198 199 5
E 199 200 5
E 200 201 5
E 201 202 5
E 203 204 5
E 204 205 5
E 205 206 5
E 206 207 5
E 207 208 5
E 208 209 5
E 210 211 5
E 162 212 13
E 164 214 13
E 165 215 13
E 166 216 13
E 168 218 13
E 169 219 13
E 170 220 13
E 171 221 13
E 172 222 13
E 174 223 13
E 175 224 13
E 177 226 13
E 178 227 13
E 179 228 13
E 180 229 13
E 181 230 13
E 182 231 13
E 183 232 13
E 185 234 13
E 186 235 13
E 188 237 13
E 189 238 13
E 190 239 13
E 191 240 13
E 192 241 13
E 193 242 13
E 195 243 13
E 196 244 13
E 197 245 13
E 198 246 13
E 200 247 13
E 201 248 13
E 202 249 13
E 203 250 13
E 204 251 13
E 205 252 13
E 207 254 13
E 208 255 13
E 209 256 13
E 210 257 13
E 211 258 13
E 212 213 5
E 213 214 5
E 214 215 5
E 216 217 5
E 217 218 5
E 218 219 5
E 219 220 5
E 220 221 5
E 221 222 5
E 223 224 5
E 224 225 5
E 225 226 5
E 226 227 5
E 227 228 5
E 230 231 5
E 231 232 5
E 232 233 5
E 233 234 5
E 234 235 5
E 235 236 5
E 236 237 5
E 237 238 5
E 238 239 5
E 239 240 5
E 240 241 5
E 241 242 5
E 244 245 5
E 247 248 5
E 248 249 5
E 250 251 5
E 251 252 5
E 252 253 5
E 253 254 5
E 254 255 5
E 255 256 5
E 257 258 5
E 212 259 13
E 213 260 13
E 214 261 13
E 215 262 13
E 216 264 13
E 218 266 13
E 219 267 13
E 220 268 13
E 221 269 13
E 222 270 13
E 223 271 13
E 225 273 13
E 227 275 13
E 228 276 13
E 229 278 13
E 230 280 13
E 231 281 13
E 232 282 13
E 233 283 13
E 234 284 13
E 235 285 13
E 236 286 13
E 237 287 13
E 238 288 13
E 239 289 13
E 240 290 13
E 242 292 13
E 243 293 13
E 244 295 13
E 245 296 13
E 246 298 13
E 247 299 13
E 248 300 13
E 249 301 13
E 250 303 13
E 251 304 13
E 252 305 13
E 253 306 13
E 254 307 13
E 255 308 13
E 256 309 13
E 257 311 13
E 258 312 13
E 259 260 5
E 260 261 5
E 261 262 5
E 262 263 5
E 263 264 5
E 264 265 5
E 265 266 5
E 266 267 5
E 267 268 5
E 268 269 5
E 269 270 5
E 271 272 5
E 272 273 5
E 273 274 5
E 274 275 5
E 275 276 5
E 276 277 5
E 277 278 5
E 278 279 5
E 279 280 5
E 280 281 5
E 281 282 5
E 282 283 5
E 283 284 5
E 284 285 5
E 285 286 5
E 286 287 5
E 287 288 5
E 288 289 5
E 289 290 5
E 290 291 5
E 291 292 5
E 293 294 5
E 294 295 5
E 295 296 5
E 296 297 5
E 297 298 5
E 299 300 5
E 300 301 5
E 301 302 5
E 302 303 5
E 303 304 5
E 304 305 5
E 305 306 5
E 306 307 5
E 307 308 5
E 308 309 5
E 309 310 5
E 310 311 5
E 311 312 5
E 259 313 13
E 260 314 13
E 261 315 13
E 262 316 13
E 263 317 13
E 264 318 13
E 266 319 13
E 267 320 13
E 268 321 13
E 270 323 13
E 271 325 13
E 272 326 13
E 273 327 13
E 274 328 13
E 275 329 13
E 276 330 13
E 277 331 13
E 278 332 13
E 279 333 13
E 280 334 13
E 282 336 13
E 284 338 13
E 285 339 13
E 286 340 13
E 288 342 13
E 289 343 13
E 290 344 13
E 291 345 13
E 292 346 13
E 293 348 13
E 294 349 13
E 295 350 13
E 296 351 13
E 297 352 13
E 298 353 13
E 299 355 13
E 300 356 13
E 301 357 13
E 302 358 13
E 303 359 13
E 304 360 13
E 305 361 13
E 306 362 13
E 307 363 13
E 308 364 13
E 309 365 13
E 310 366 13
E 311 367 13
E 312 368 13
E 313 314 5
E 314 315 5
E 315 316 5
E 316 317 5
E 317 318 5
E 319 320 5
E 320 321 5
E 321 322 5
E 322 323 5
E 323 324 5
E 324 325 5
E 325 326 5
E 326 327 5
E 327 328 5
E 328 329 5
E 329 330 5
E 330 331 5
E 331 332 5
E 332 333 5
E 333 334 5
E 334 335 5
E 335 336 5
E 336 337 5
E 337 338 5
E 338 339 5
E 339 340 5
E 340 341 5
E 341 342 5
E 342 343 5
E 343 344 5
E 344 345 5
E 345 346 5
E 346 347 5
E 347 348 5
E 348 349 5
E 349 350 5
E 350 351 5
E 351 352 5
E 352 353 5
E 353 354 5
E 354 355 5
E 355 356 5
E 356 357 5
E 357 358 5
E 358 359 5
E 359 360 5
E 360 361 5
E 361 362 5
E 362 363 5
E 363 364 5
E 364 365 5
E 365 366 5
E 366 367 5
E 367 368 5
E 313 369 13
E 314 370 13
E 316 371 13
E 317 372 13
E 318 373 13
E 319 374 13
E 321 376 13
E 322 377 13
E 323 378 13
E 324 379 13
E 325 380 13
E 326 381 13
E 327 382 13
E 329 383 13
E 331 385 13
E 332 386 13
E 333 387 13
E 334 388 13
E 335 389 13
E 336 390 13
E 337 391 13
E 338 392 13
E 339 393 13
E 340 394 13
E 341 395 13
E 342 396 13
E 343 397 13
E 344 398 13
E 346 400 13
E 347 401 13
E 348 402 13
E 349 403 13
E 350 404 13
E 352 405 13
E 353 406 13
E 354 407 13
E 355 408 13
E 356 409 13
E 357 410 13
E 359 412 13
E 360 413 13
E 363 414 13
E 364 415 13
E 366 417 13
E 367 418 13
E 368 419 13
E 369 370 5
E 371 372 5
E 372 373 5
E 374 375 5
E 375 376 5
E 376 377 5
E 377 378 5
E 378 379 5
E 379 380 5
E 380 381 5
E 381 382 5
E 383 384 5
E 384 385 5
E 385 386 5
E 386 387 5
E 387 388 5
E 388 389 5
E 389 390 5
E 390 391 5
E 391 392 5
E 392 393 5
E 393 394 5
E 394 395 5
E 395 396 5
E 396 397 5
E 397 398 5
E 398 399 5
E 399 400 5
E 400 401 5
E 401 402 5
E 402 403 5
E 403 404 5
E 405 406 5
E 406 407 5
E 407 408 5
E 408 409 5
E 409 410 5
E 410 411 5
E 411 412 5
E 412 413 5
E 414 415 5
E 415 416 5
E 416 417 5
E 417 418 5
E 418 419 5
E 369 420 13
E 370 421 13
E 371 423 13
E 372 424 13
E 373 425 13
E 374 427 13
E 375 428 13
E 376 429 13
E 378 430 13
E 379 431 13
E 381 433 13
E 382 434 13
E 383 435 13
E 384 436 13
E 385 437 13
E 386 438 13
E 388 439 13
E 389 440 13
E 390 441 13
E 392 443 13
E 394 445 13
E 395 446 13
E 396 447 13
E 397 448 13
E 398 449 13
E 399 450 13
E 400 451 13
E 401 452 13
E 402 453 13
E 403 454 13
E 404 455 13
E 405 456 13
E 408 459 13
E 409 460 13
E 410 461 13
E 411 462 13
E 412 463 13
E 413 464 13
E 414 465 13
E 415 466 13
E 416 467 13
E 417 468 13
E 418 469 13
E 419 470 13
E 420 421 5
E 421 422 5
E 422 423 5
E 423 424 5
E 424 425 5
E 425 426 5
E 426 427 5
E 427 428 5
E 428 429 5
E 430 431 5
E 431 432 5
E 432 433 5
E 433 434 5
E 435 436 5
E 436 437 5
E 437 438 5
E 439 440 5
E 440 441 5
E 441 442 5
E 442 443 5
E 443 444 5
E 444 445 5
E 445 446 5
E 446 447 5
E 447 448 5
E 448 449 5
E 449 450 5
E 450 451 5
E 451 452 5
E 452 453 5
E 453 454 5
E 454 455 5
E 456 457 5
E 457 458 5
E 458 459 5
E 459 460 5
E 460 461 5
E 461 462 5
E 462 463 5
E 463 464 5
E 465 466 5
E 466 467 5
E 467 468 5
E 468 469 5
E 469 470 5
E 420 471 13
E 421 472 13
E 422 473 13
E 423 474 13
E 425 475 13
E 426 476 13
E 427 477 13
E 429 478 13
E 430 479 13
E 431 480 13
E 432 481 13
E 433 482 13
E 434 483 13
E 435 485 13
E 436 486 13
E 437 487 13
E 438 488 13
E 439 489 13
E 440 490 13
E 441 491 13
E 442 492 13
E 443 493 13
E 444 494 13
E 445 495 13
E 446 496 13
E 447 497 13
E 449 498 13
E 452 499 13
E 453 500 13
E 454 501 13
E 455 502 13
E 456 504 13
E 457 505 13
E 458 506 13
E 459 507 13
E 460 508 13
E 461 509 13
E 463 511 13
E 464 512 13
E 465 515 13
E 466 516 13
E 467 517 13
E 469 518 13
E 470 519 13
E 471 472 5
E 472 473 5
E 473 474 5
E 475 476 5
E 476 477 5
E 479 480 5
E 480 481 5
E 481 482 5
E 482 483 5
E 483 484 5
E 484 485 5
E 485 486 5
E 486 487 5
E 487 488 5
E 489 490 5
E 490 491 5
E 491 492 5
E 492 493 5
E 493 494 5
E 494 495 5
E 495 496 5
E 496 497 5
E 499 500 5
E 500 501 5
E 501 502 5
E 502 503 5
E 503 504 5
E 504 505 5
E 505 506 5
E 506 507 5
E 507 508 5
E 508 509 5
E 509 510 5
E 510 511 5
E 511 512 5
E 512 513 5
E 513 514 5
E 514 515 5
E 515 516 5
E 516 517 5
E 518 519 5
E 471 520 13
E 474 523 13
E 475 524 13
E 477 525 13
E 478 526 13
E 479 528 13
E 482 531 13
E 483 532 13
E 484 533 13
E 485 534 13
E 486 535 13
E 487 536 13
E 488 537 13
E 489 539 13
E 490 540 13
E 491 541 13
E 494 544 13
E 495 545 13
E 496 546 13
E 497 547 13
E 498 548 13
E 499 549 13
E 500 550 13
E 501 551 13
E 502 552 13
E 503 553 13
E 504 554 13
E 505 555 13
E 507 556 13
E 508 557 13
E 509 558 13
E 510 559 13
E 511 560 13
E 512 561 13
E 513 562 13
E 514 563 13
E 515 564 13
E 516 565 13
E 517 566 13
E 518 567 13
E 519 568 13
E 520 521 5
E 521 522 5
E 522 523 5
E 526 527 5
E 527 528 5
E 528 529 5
E 529 530 5
E 530 531 5
E 531 532 5
E 532 533 5
E 533 534 5
E 534 535 5
E 535 536 5
E 536 537 5
E 537 538 5
E 538 539 5
E 539 540 5
E 540 541 5
E 541 542 5
E 542 543 5
E 543 544 5
E 544 545 5
E 545 546 5
E 546 547 5
E 549 550 5
E 550 551 5
E 551 552 5
E 552 553 5
E 553 554 5
E 554 555 5
E 556 557 5
E 557 558 5
E 558 559 5
E 559 560 5
E 560 561 5
E 561 562 5
E 562 563 5
E 563 564 5
E 564 565 5
E 565 566 5
E 567 568 5
E 520 569 13
E 521 570 13
E 522 571 13
E 523 572 13
E 524 574 13
E 525 576 13
E 526 578 13
E 527 579 13
E 528 580 13
E 529 581 13
E 530 582 13
E 531 583 13
E 532 584 13
E 533 585 13
E 534 586 13
E 535 587 13
E 536 588 13
E 537 589 13
E 538 590 13
E 539 591 13
E 540 592 13
E 541 593 13
E 542 594 13
E 543 595 13
E 544 596 13
E 545 597 13
E 546 598 13
E 547 599 13
E 548 601 13
E 549 604 13
E 550 605 13
E 551 606 13
E 552 607 13
E 554 608 13
E 555 609 13
E 556 610 13
E 557 611 13
E 558 612 13
E 560 614 13
E 561 615 13
E 562 616 13
E 563 617 13
E 564 618 13
E 565 619 13
E 566 620 13
E 567 622 13
E 568 623 13
E 569 570 5
E 570 571 5
E 571 572 5
E 572 573 5
E 573 574 5
E 574 575 5
E 575 576 5
E 576 577 5
E 577 578 5
E 578 579 5
E 579 580 5
E 580 581 5
E 581 582 5
E 582 583 5
E 583 584 5
E 584 585 5
E 585 586 5
E 586 587 5
E 587 588 5
E 588 589 5
E 589 590 5
E 590 591 5
E 591 592 5
E 592 593 5
E 593 594 5
E 594 595 5
E 595 596 5
E 596 597 5
E 597 598 5
E 598 599 5
E 599 600 5
E 600 601 5
E 601 602 5
E 602 603 5
E 603 604 5
E 604 605 5
E 605 606 5
E 606 607 5
E 608 609 5
E 610 611 5
E 611 612 5
E 612 613 5
E 613 614 5
E 614 615 5
E 615 616 5
E 616 617 5
E 617 618 5
E 618 619 5
E 619 620 5
E 620 621 5
E 621 622 5
E 622 623 5
E 569 624 13
E 570 625 13
E 572 626 13
E 573 627 13
E 574 628 13
E 575 629 13
E 576 630 13
E 577 631 13
E 578 632 13
E 579 633 13
E 580 634 13
E 581 635 13
E 582 636 13
E 583 637 13
E 586 638 13
E 587 639 13
E 590 642 13
E 591 643 13
E 592 644 13
E 593 645 13
E 594 646 13
E 595 647 13
E 596 648 13
E 597 649 13
E 598 650 13
E 599 651 13
E 600 652 13
E 601 653 13
E 602 654 13
E 603 655 13
E 604 656 13
E 605 657 13
E 606 658 13
E 607 659 13
E 608 660 13
E 609 661 13
E 610 663 13
E 611 664 13
E 612 665 13
E 613 666 13
E 614 667 13
E 615 668 13
E 616 669 13
E 617 670 13
E 618 671 13
E 619 672 13
E 620 673 13
E 621 674 13
E 622 675 13
E 623 676 13
E 624 625 5
E 626 627 5
E 627 628 5
E 628 629 5
E 629 630 5
E 630 631 5
E 631 632 5
E 632 633 5
E 633 634 5
E 634 635 5
E 635 636 5
E 636 637 5
E 638 639 5
E 639 640 5
E 640 641 5
E 641 642 5
E 642 643 5
E 643 644 5
E 644 645 5
E 645 646 5
E 646 647 5
E 647 648 5
E 648 649 5
E 649 650 5
E 650 651 5
E 651 652 5
E 652 653 5
E 653 654 5
E 654 655 5
E 655 656 5
E 656 657 5
E 657 658 5
E 658 659 5
E 660 661 5
E 661 662 5
E 662 663 5
E 663 664 5
E 664 665 5
E 665 666 5
E 666 667 5
E 667 668 5
E 668 669 5
E 669 670 5
E 670 671 5
E 671 672 5
E 672 673 5
E 673 674 5
E 674 675 5
E 675 676 5
E 624 677 13
E 625 678 13
E 626 679 13
E 628 680 13
E 629 681 13
E 630 682 13
E 631 683 13
E 632 684 13
E 633 685 13
E 634 686 13
E 635 687 13
E 636 688 13
E 637 689 13
E 638 690 13
E 639 691 13
E 641 692 13
E 644 693 13
E 645 694 13
E 646 695 13
E 647 696 13
E 648 697 13
E 649 698 13
E 651 699 13
E 653 700 13
E 654 701 13
E 655 702 13
E 658 705 13
E 659 706 13
E 660 708 13
E 661 709 13
E 662 710 13
E 663 711 13
E 664 712 13
E 665 713 13
E 666 714 13
E 667 715 13
E 668 716 13
E 669 717 13
E 670 718 13
E 671 719 13
E 672 720 13
E 673 721 13
E 675 723 13
E 676 724 13
E 677 678 5
E 680 681 5
E 681 682 5
E 682 683 5
E 683 684 5
E 684 685 5
E 685 686 5
E 686 687 5
E 687 688 5
E 688 689 5
E 690 691 5
E 693 694 5
E 694 695 5
E 695 696 5
E 696 697 5
E 697 698 5
E 700 701 5
E 701 702 5
E 702 703 5
E 703 704 5
E 704 705 5
E 705 706 5
E 706 707 5
E 707 708 5
E 708 709 5
E 709 710 5
E 710 711 5
E 711 712 5
E 712 713 5
E 713 714 5
E 714 715 5
E 715 716 5
E 716 717 5
E 717 718 5
E 718 719 5
E 719 720 5
E 720 721 5
E 721 722 5
E 722 723 5
E 723 724 5
E 678 725 13
E 679 727 13
E 680 728 13
E 681 729 13
E 682 730 13
E 683 731 13
E 684 732 13
E 685 733 13
E 687 734 13
E 688 735 13
E 689 736 13
E 690 739 13
E 691 740 13
E 692 741 13
E 693 742 13
E 694 743 13
E 697 744 13
E 698 745 13
E 699 746 13
E 700 747 13
E 701 748 13
E 702 749 13
E 703 750 13
E 704 751 13
E 705 752 13
E 706 753 13
E 707 754 13
E 708 755 13
E 709 756 13
E 710 757 13
E 711 758 13
E 712 759 13
E 713 760 13
E 714 761 13
E 715 762 13
E 716 763 13
E 717 764 13
E 718 765 13
E 719 766 13
E 720 767 13
E 721 768 13
E 722 769 13
E 723 770 13
E 724 771 13
E 725 726 5
E 726 727 5
E 728 729 5
E 729 730 5
E 730 731 5
E 731 732 5
E 732 733 5
E 734 735 5
E 735 736 5
E 736 737 5
E 737 738 5
E 738 739 5
E 739 740 5
E 742 743 5
E 744 745 5
E 747 748 5
E 748 749 5
E 749 750 5
E 750 751 5
E 751 752 5
E 752 753 5
E 753 754 5
E 754 755 5
E 755 756 5
E 756 757 5
E 757 758 5
E 758 759 5
E 759 760 5
E 760 761 5
E 761 762 5
E 762 763 5
E 763 764 5
E 764 765 5
E 765 766 5
E 766 767 5
E 767 768 5
E 768 769 5
E 769 770 5
E 770 771 5
E 725 772 13
E 726 773 13
E 727 774 13
E 728 776 13
E 729 777 13
E 730 778 13
E 731 779 13
E 732 780 13
E 733 781 13
E 734 783 13
E 735 784 13
E 736 785 13
E 737 786 13
E 738 787 13
E 739 788 13
E 740 789 13
E 741 791 13
E 742 794 13
E 743 795 13
E 744 796 13
E 745 797 13
E 746 799 13
E 747 801 13
E 748 802 13
E 749 803 13
E 750 804 13
E 751 805 13
E 752 806 13
E 753 807 13
E 755 808 13
E 757 810 13
E 758 811 13
E 759 812 13
E 760 813 13
E 761 814 13
E 762 815 13
E 763 816 13
E 765 818 13
E 766 819 13
E 767 820 13
E 768 821 13
E 771 822 13
E 772 773 5
E 773 774 5
E 774 775 5
E 775 776 5
E 776 777 5
E 777 778 5
E 778 779 5
E 779 780 5
E 780 781 5
E 781 782 5
E 782 783 5
E 783 784 5
E 784 785 5
E 785 786 5
E 786 787 5
E 787 788 5
E 788 789 5
E 789 790 5
E 790 791 5
E 791 792 5
E 792 793 5
E 793 794 5
E 794 795 5
E 796 797 5
E 797 798 5
E 798 799 5
E 799 800 5
E 800 801 5
E 801 802 5
E 802 803 5
E 803 804 5
E 804 805 5
E 805 806 5
E 806 807 5
E 808 809 5
E 809 810 5
E 810 811 5
E 811 812 5
E 812 813 5
E 813 814 5
E 814 815 5
E 815 816 5
E 816 817 5
E 817 818 5
E 818 819 5
E 819 820 5
E 820 821 5
E 772 824 13
E 773 825 13
E 776 828 13
E 777 829 13
E 778 830 13
E 780 832 13
E 781 833 13
E 782 834 13
E 783 835 13
E 784 836 13
E 785 837 13
E 786 838 13
E 787 839 13
E 788 840 13
E 789 841 13
E 790 842 13
E 791 843 13
E 792 844 13
E 793 845 13
E 794 846 13
E 795 847 13
E 796 850 13
E 797 851 13
E 798 852 13
E 799 853 13
E 800 854 13
E 801 855 13
E 804 856 13
E 805 857 13
E 806 858 13
E 807 859 13
E 808 860 13
E 809 861 13
E 810 862 13
E 811 863 13
E 812 864 13
E 813 865 13
E 814 866 13
E 815 867 13
E 816 868 13
E 817 869 13
E 818 870 13
E 819 871 13
E 820 872 13
E 821 873 13
E 822 874 13
E 823 824 5
E 824 825 5
E 825 826 5
E 826 827 5
E 827 828 5
E 828 829 5
E 829 830 5
E 830 831 5
E 831 832 5
E 832 833 5
E 833 834 5
E 834 835 5
E 835 836 5
E 836 837 5
E 837 838 5
E 838 839 5
E 839 840 5
E 840 841 5
E 841 842 5
E 842 843 5
E 843 844 5
E 844 845 5
E 845 846 5
E 846 847 5
E 847 848 5
E 848 849 5
E 849 850 5
E 850 851 5
E 851 852 5
E 852 853 5
E 853 854 5
E 854 855 5
E 856 857 5
E 857 858 5
E 858 859 5
E 860 861 5
E 861 862 5
E 862 863 5
E 863 864 5
E 864 865 5
E 865 866 5
E 866 867 5
E 867 868 5
E 868 869 5
E 869 870 5
E 870 871 5
E 871 872 5
E 872 873 5
E 823 875 13
E 824 876 13
E 825 877 13
E 826 878 13
E 827 879 13
E 828 880 13
E 829 881 13
E 830 882 13
E 831 883 13
E 832 884 13
E 833 885 13
E 834 886 13
E 835 887 13
E 836 888 13
E 837 889 13
E 838 890 13
E 839 891 13
E 840 892 13
E 841 893 13
E 842 894 13
E 843 895 13
E 844 896 13
E 845 897 13
E 846 898 13
E 847 899 13
E 848 900 13
E 849 901 13
E 850 902 13
E 851 903 13
E 852 904 13
E 853 905 13
E 854 906 13
E 855 907 13
E 856 908 13
E 857 909 13
E 858 910 13
E 859 911 13
E 860 913 13
E 861 914 13
E 862 915 13
E 864 916 13
E 865 917 13
E 866 918 13
E 867 919 13
E 868 920 13
E 869 921 13
E 870 922 13
E 871 923 13
E 872 924 13
E 873 925 13
E 874 928 13
E 875 876 5
E 876 877 5
E 877 878 5
E 878 879 5
E 879 880 5
E 880 881 5
E 881 882 5
E 882 883 5
E 883 884 5
E 884 885 5
E 885 886 5
E 886 887 5
E 887 888 5
E 888 889 5
E 889 890 5
E 890 891 5
E 891 892 5
E 892 893 5
E 893 894 5
E 894 895 5
E 895 896 5
E 896 897 5
E 897 898 5
E 898 899 5
E 899 900 5
E 900 901 5
E 901 902 5
E 902 903 5
E 903 904 5
E 904 905 5
E 905 906 5
E 906 907 5
E 908 909 5
E 909 910 5
E 910 911 5
E 911 912 5
E 912 913 5
E 913 914 5
E 914 915 5
E 916 917 5
E 917 918 5
E 918 919 5
E 919 920 5
E 920 921 5
E 921 922 5
E 922 923 5
E 923 924 5
E 924 925 5
E 925 926 5
E 926 927 5
E 927 928 5
E 875 929 13
E 876 930 13
E 877 931 13
E 878 932 13
E 879 933 13
E 880 934 13
E 883 937 13
E 884 938 13
E 885 939 13
E 886 940 13
E 888 942 13
E 889 943 13
E 890 944 13
E 892 946 13
E 893 947 13
E 894 948 13
E 895 949 13
E 896 950 13
E 897 951 13
E 898 952 13
E 899 953 13
E 900 954 13
E 901 955 13
E 902 956 13
E 903 957 13
E 904 958 13
E 905 959 13
E 906 960 13
E 907 961 13
E 908 964 13
E 909 965 13
E 910 966 13
E 911 967 13
E 912 968 13
E 913 969 13
E 914 970 13
E 915 971 13
E 916 972 13
E 917 973 13
E 918 974 13
E 919 975 13
E 920 976 13
E 921 977 13
E 922 978 13
E 923 979 13
E 924 980 13
E 925 981 13
E 926 982 13
E 927 983 13
E 928 984 13
E 929 930 5
E 930 931 5
E 931 932 5
E 932 933 5
E 933 934 5
E 934 935 5
E 935 936 5
E 936 937 5
E 937 938 5
E 938 939 5
E 939 940 5
E 940 941 5
E 941 942 5
E 942 943 5
E 943 944 5
E 944 945 5
E 945 946 5
E 946 947 5
E 947 948 5
E 948 949 5
E 949 950 5
E 950 951 5
E 951 952 5
E 952 953 5
E 953 954 5
E 954 955 5
E 955 956 5
E 956 957 5
E 957 958 5
E 958 959 5
E 959 960 5
E 960 961 5
E 961 962 5
E 962 963 5
E 963 964 5
E 964 965 5
E 965 966 5
E 966 967 5
E 967 968 5
E 968 969 5
E 969 970 5
E 970 971 5
E 972 973 5
E 973 974 5
E 974 975 5
E 975 976 5
E 976 977 5
E 977 978 5
E 978 979 5
E 979 980 5
E 980 981 5
E 981 982 5
E 982 983 5
E 983 984 5
E 929 985 13
E 930 986 13
E 931 987 13
E 932 988 13
E 933 989 13
E 934 990 13
E 935 991 13
E 936 992 13
E 937 993 13
E 938 994 13
E 939 995 13
E 940 996 13
E 941 997 13
E 942 998 13
E 943 999 13
E 944 1000 13
E 945 1001 13
E 946 1002 13
E 947 1003 13
E 948 1004 13
E 949 1005 13
E 950 1006 13
E 951 1007 13
E 952 1008 13
E 953 1009 13
E 954 1010 13
E 955 1011 13
E 956 1012 13
E 957 1013 13
E 958 1014 13
E 959 1015 13
E 961 1016 13
E 962 1017 13
E 963 1018 13
E 964 1019 13
E 967 1022 13
E 968 1023 13
E 969 1024 13
E 971 1026 13
E 972 1028 13
E 973 1029 13
E 974 1030 13
E 975 1031 13
E 976 1032 13
E 977 1033 13
E 979 1035 13
E 981 1037 13
E 982 1038 13
E 983 1039 13
E 984 1040 13
E 985 986 5
E 986 987 5
E 987 988 5
E 988 989 5
E 989 990 5
E 990 991 5
E 991 992 5
E 992 993 5
E 993 994 5
E 994 995 5
E 995 996 5
E 996 997 5
E 997 998 5
E 998 999 5
E 999 1000 5
E 1000 1001 5
E 1001 1002 5
E 1002 1003 5
E 1003 1004 5
E 1004 1005 5
E 1005 1006 5
E 1006 1007 5
E 1007 1008 5
E 1008 1009 5
E 1009 1010 5
E 1010 1011 5
E 1011 1012 5
E 1012 1013 5
E 1013 1014 5
E 1014 1015 5
E 1016 1017 5
E 1017 1018 5
E 1018 1019 5
E 1019 1020 5
E 1020 1021 5
E 1021 1022 5
E 1022 1023 5
E 1023 1024 5
E 1024 1025 5
E 1025 1026 5
E 1026 1027 5
E 1027 1028 5
E 1028 1029 5
E 1029 1030 5
E 1030 1031 5
E 1031 1032 5
E 1032 1033 5
E 1033 1034 5
E 1034 1035 5
E 1035 1036 5
E 1036 1037 5
E 1037 1038 5
E 1038 1039 5
E 1039 1040 5
E 986 1041 13
E 987 1042 13
E 988 1043 13
E 990 1045 13
E 991 1046 13
E 992 1047 13
E 994 1048 13
E 996 1049 13
E 997 1050 13
E 999 1052 13
E 1000 1053 13
E 1002 1054 13
E 1003 1055 13
E 1004 1056 13
E 1005 1057 13
E 1006 1058 13
E 1007 1059 13
E 1008 1060 13
E 1009 1061 13
E 1010 1062 13
E 1012 1064 13
E 1013 1065 13
E 1015 1066 13
E 1016 1068 13
E 1019 1071 13
E 1020 1072 13
E 1021 1073 13
E 1022 1074 13
E 1023 1075 13
E 1024 1076 13
E 1025 1077 13
E 1026 1078 13
E 1027 1079 13
E 1028 1080 13
E 1029 1081 13
E 1030 1082 13
E 1031 1083 13
E 1032 1084 13
E 1033 1085 13
E 1034 1086 13
E 1035 1087 13
E 1036 1088 13
E 1037 1089 13
E 1038 1090 13
E 1039 1091 13
E 1040 1092 13
E 1041 1042 5
E 1042 1043 5
E 1043 1044 5
E 1044 1045 5
E 1045 1046 5
E 1046 1047 5
E 1049 1050 5
E 1050 1051 5
E 1051 1052 5
E 1052 1053 5
E 1054 1055 5
E 1055 1056 5
E 1056 1057 5
E 1057 1058 5
E 1058 1059 5
E 1059 1060 5
E 1060 1061 5
E 1061 1062 5
E 1062 1063 5
E 1063 1064 5
E 1064 1065 5
E 1066 1067 5
E 1067 1068 5
E 1068 1069 5
E 1069 1070 5
E 1070 1071 5
E 1071 1072 5
E 1072 1073 5
E 1073 1074 5
E 1074 1075 5
E 1075 1076 5
E 1076 1077 5
E 1077 1078 5
E 1078 1079 5
E 1079 1080 5
E 1080 1081 5
E 1081 1082 5
E 1082 1083 5
E 1083 1084 5
E 1084 1085 5
E 1085 1086 5
E 1086 1087 5
E 1087 1088 5
E 1088 1089 5
E 1089 1090 5
E 1090 1091 5
E 1091 1092 5
E 1041 1093 13
E 1042 1094 13
E 1043 1095 13
E 1044 1096 13
E 1045 1097 13
E 1046 1098 13
E 1047 1099 13
E 1048 1100 13
E 1049 1101 13
E 1050 1102 13
E 1051 1103 13
E 1052 1104 13
E 1053 1105 13
E 1054 1106 13
E 1055 1107 13
E 1056 1108 13
E 1057 1109 13
E 1058 1110 13
E 1059 1111 13
E 1060 1112 13
E 1061 1113 13
E 1062 1114 13
E 1063 1115 13
E 1064 1116 13
E 1065 1117 13
E 1066 1118 13
E 1067 1119 13
E 1068 1120 13
E 1071 1123 13
E 1072 1124 13
E 1074 1125 13
E 1075 1126 13
E 1076 1127 13
E 1077 1128 13
E 1078 1129 13
E 1079 1130 13
E 1080 1131 13
E 1081 1132 13
E 1082 1133 13
E 1083 1134 13
E 1084 1135 13
E 1085 1136 13
E 1086 1137 13
E 1087 1138 13
E 1088 1139 13
E 1089 1140 13
E 1090 1141 13
E 1091 1142 13
E 1093 1094 5
E 1094 1095 5
E 1095 1096 5
E 1096 1097 5
E 1097 1098 5
E 1098 1099 5
E 1101 1102 5
E 1102 1103 5
E 1103 1104 5
E 1104 1105 5
E 1106 1107 5
E 1107 1108 5
E 1108 1109 5
E 1109 1110 5
E 1110 1111 5
E 1111 1112 5
E 1112 1113 5
E 1113 1114 5
E 1114 1115 5
E 1115 1116 5
E 1116 1117 5
E 1118 1119 5
E 1119 1120 5
E 1120 1121 5
E 1121 1122 5
E 1122 1123 5
E 1123 1124 5
E 1125 1126 5
E 1126 1127 5
E 1127 1128 5
E 1128 1129 5
E 1129 1130 5
E 1130 1131 5
E 1131 1132 5
E 1132 1133 5
E 1133 1134 5
E 1134 1135 5
E 1135 1136 5
E 1136 1137 5
E 1137 1138 5
E 1138 1139 5
E 1139 1140 5
E 1140 1141 5
E 1141 1142 5
E 1142 1143 5
E 1093 1145 13
E 1094 1146 13
E 1095 1147 13
E 1097 1149 13
E 1098 1150 13
E 1099 1151 13
E 1100 1153 13
E 1101 1155 13
E 1103 1157 13
E 1104 1158 13
E 1105 1159 13
E 1106 1161 13
E 1107 1162 13
E 1108 1163 13
E 1110 1165 13
E 1111 1166 13
E 1112 1167 13
E 1113 1168 13
E 1115 1169 13
E 1117 1171 13
E 1118 1173 13
E 1119 1174 13
E 1122 1177 13
E 1123 1178 13
E 1124 1179 13
E 1125 1180 13
E 1128 1183 13
E 1129 1184 13
E 1131 1185 13
E 1132 1186 13
E 1133 1187 13
E 1135 1188 13
E 1136 1189 13
E 1137 1190 13
E 1138 1191 13
E 1139 1192 13
E 1140 1193 13
E 1141 1194 13
E 1142 1195 13
E 1143 1196 13
E 1144 1145 5
E 1145 1146 5
E 1146 1147 5
E 1147 1148 5
E 1148 1149 5
E 1149 1150 5
E 1150 1151 5
E 1151 1152 5
E 1152 1153 5
E 1153 1154 5
E 1154 1155 5
E 1155 1156 5
E 1156 1157 5
E 1157 1158 5
E 1158 1159 5
E 1159 1160 5
E 1160 1161 5
E 1161 1162 5
E 1162 1163 5
E 1163 1164 5
E 1164 1165 5
E 1165 1166 5
E 1166 1167 5
E 1167 1168 5
E 1169 1170 5
E 1170 1171 5
E 1171 1172 5
E 1172 1173 5
E 1173 1174 5
E 1174 1175 5
E 1175 1176 5
E 1176 1177 5
E 1177 1178 5
E 1178 1179 5
E 1180 1181 5
E 1181 1182 5
E 1182 1183 5
E 1183 1184 5
E 1185 1186 5
E 1186 1187 5
E 1188 1189 5
E 1189 1190 5
E 1190 1191 5
E 1191 1192 5
E 1192 1193 5
E 1193 1194 5
E 1194 1195 5
E 1195 1196 5
END

SECTION Terminals
Terminals 14
T 45
T 157
T 367
T 393
T 408
T 412
T 463
T 471
T 516
T 619
T 655
T 667
T 669
T 1116
END

EOF
